%pal nprocs 32 # Number of processors

	end

! RKS B3LYP 6-311G* Opt Freq TightOpt VeryTightSCF

* xyz 0 1
C        1.5714036283     -0.3223184042     -0.2455268696                 
C        0.3999632193      0.3160601820     -0.1824650390                 
C       -0.8213344909     -0.3754737697      0.2756942033                 
C       -2.0004203229      0.2513039549      0.3015375354                 
H       -0.7696345038     -1.4124674803      0.5957601569                 
H       -2.0941003057      1.2857064673     -0.0151006020                 
H       -2.8868322891     -0.2756693923      0.6391430705                 
H        0.3533148024      1.3604997783     -0.4782062220                 
H        1.6577786346     -1.3673220793      0.0365025037                 
H        2.4570695043      0.2029931938     -0.5876345449                 
*


