%pal nprocs 8
end

%maxcore 2000

! RKS B3LYP 6-311G* NMGrad VeryTightSCF

%tddft NRoots 1
     triplets false
end


%rr
    HessName="../opt_freq/buta_opt_freq.hess"
    states 1
    Tdnc 0.005
    ASAInput true
end

* xyzfile 0 1 ../opt_freq/buta_opt_freq.xyz

